1 1260
2 1163
3 1099
7 1090
10 1038
23 1018
35 994
144 980
182 970
406 965



1 1265
2 1134
5 1067
7 1062
11 1046
38 1032
41 1022
74 989
517 987
921 977
999 969



1 1254
2 1096
7 1063
8 1055
17 1026
20 1020
26 976



1 1316
2 1108
7 1105
8 1069
12 1020
127 1009
250 995
352 985
477 952
933 943



1 1294
2 1172
3 1131
4 1126
6 1123
10 1107
11 1091
12 1077
14 1068
16 1029
29 1012
40 1005
60 1001
99 1000
343 928



